20
1 0 40
2 1 30
4 0 56
5 2 56
6 2 46
6 4 55
7 0 59
7 3 73
7 6 10
8 0 26
8 5 19
8 6 48
8 7 2
9 1 39
9 4 3
9 7 72
10 0 49
10 1 65
10 3 35
11 4 18
12 9 78
12 10 34
13 2 41
13 4 10
13 5 68
13 6 10
14 1 55
14 8 21
15 2 20
15 4 29
15 6 77
15 11 4
16 3 12
16 4 22
16 12 23
16 14 75
17 1 63
17 2 32
17 4 38
17 9 22
17 10 80
17 13 65
17 14 8
18 0 65
18 6 77
18 8 41
18 9 64
18 10 20
19 0 13
19 4 10
19 9 59
